c *********************************
c * Circuit generated by BenCGen
c *
c * Parity_104
c *
c * Ports with 1 gate(s): 1
c * Ports with 2 gate(s): 104
c * Total gates: 105
c *********************************
p cnf 209 417
1 107 0
-1 -107 0
1 -106 0
107 -106 0
-1 -107 106 0
1 2 -108 0
-1 2 108 0
1 -2 108 0
-1 -2 -108 0
3 4 -109 0
-3 4 109 0
3 -4 109 0
-3 -4 -109 0
5 6 -110 0
-5 6 110 0
5 -6 110 0
-5 -6 -110 0
7 8 -111 0
-7 8 111 0
7 -8 111 0
-7 -8 -111 0
9 10 -112 0
-9 10 112 0
9 -10 112 0
-9 -10 -112 0
11 12 -113 0
-11 12 113 0
11 -12 113 0
-11 -12 -113 0
13 14 -114 0
-13 14 114 0
13 -14 114 0
-13 -14 -114 0
15 16 -115 0
-15 16 115 0
15 -16 115 0
-15 -16 -115 0
17 18 -116 0
-17 18 116 0
17 -18 116 0
-17 -18 -116 0
19 20 -117 0
-19 20 117 0
19 -20 117 0
-19 -20 -117 0
21 22 -118 0
-21 22 118 0
21 -22 118 0
-21 -22 -118 0
23 24 -119 0
-23 24 119 0
23 -24 119 0
-23 -24 -119 0
25 26 -120 0
-25 26 120 0
25 -26 120 0
-25 -26 -120 0
27 28 -121 0
-27 28 121 0
27 -28 121 0
-27 -28 -121 0
29 30 -122 0
-29 30 122 0
29 -30 122 0
-29 -30 -122 0
31 32 -123 0
-31 32 123 0
31 -32 123 0
-31 -32 -123 0
33 34 -124 0
-33 34 124 0
33 -34 124 0
-33 -34 -124 0
35 36 -125 0
-35 36 125 0
35 -36 125 0
-35 -36 -125 0
37 38 -126 0
-37 38 126 0
37 -38 126 0
-37 -38 -126 0
39 40 -127 0
-39 40 127 0
39 -40 127 0
-39 -40 -127 0
41 42 -128 0
-41 42 128 0
41 -42 128 0
-41 -42 -128 0
43 44 -129 0
-43 44 129 0
43 -44 129 0
-43 -44 -129 0
45 46 -130 0
-45 46 130 0
45 -46 130 0
-45 -46 -130 0
47 48 -131 0
-47 48 131 0
47 -48 131 0
-47 -48 -131 0
49 50 -132 0
-49 50 132 0
49 -50 132 0
-49 -50 -132 0
51 52 -133 0
-51 52 133 0
51 -52 133 0
-51 -52 -133 0
53 54 -134 0
-53 54 134 0
53 -54 134 0
-53 -54 -134 0
55 56 -135 0
-55 56 135 0
55 -56 135 0
-55 -56 -135 0
57 58 -136 0
-57 58 136 0
57 -58 136 0
-57 -58 -136 0
59 60 -137 0
-59 60 137 0
59 -60 137 0
-59 -60 -137 0
61 62 -138 0
-61 62 138 0
61 -62 138 0
-61 -62 -138 0
63 64 -139 0
-63 64 139 0
63 -64 139 0
-63 -64 -139 0
65 66 -140 0
-65 66 140 0
65 -66 140 0
-65 -66 -140 0
67 68 -141 0
-67 68 141 0
67 -68 141 0
-67 -68 -141 0
69 70 -142 0
-69 70 142 0
69 -70 142 0
-69 -70 -142 0
71 72 -143 0
-71 72 143 0
71 -72 143 0
-71 -72 -143 0
73 74 -144 0
-73 74 144 0
73 -74 144 0
-73 -74 -144 0
75 76 -145 0
-75 76 145 0
75 -76 145 0
-75 -76 -145 0
77 78 -146 0
-77 78 146 0
77 -78 146 0
-77 -78 -146 0
79 80 -147 0
-79 80 147 0
79 -80 147 0
-79 -80 -147 0
81 82 -148 0
-81 82 148 0
81 -82 148 0
-81 -82 -148 0
83 84 -149 0
-83 84 149 0
83 -84 149 0
-83 -84 -149 0
85 86 -150 0
-85 86 150 0
85 -86 150 0
-85 -86 -150 0
87 88 -151 0
-87 88 151 0
87 -88 151 0
-87 -88 -151 0
89 90 -152 0
-89 90 152 0
89 -90 152 0
-89 -90 -152 0
91 92 -153 0
-91 92 153 0
91 -92 153 0
-91 -92 -153 0
93 94 -154 0
-93 94 154 0
93 -94 154 0
-93 -94 -154 0
95 96 -155 0
-95 96 155 0
95 -96 155 0
-95 -96 -155 0
97 98 -156 0
-97 98 156 0
97 -98 156 0
-97 -98 -156 0
99 100 -157 0
-99 100 157 0
99 -100 157 0
-99 -100 -157 0
101 102 -158 0
-101 102 158 0
101 -102 158 0
-101 -102 -158 0
103 104 -159 0
-103 104 159 0
103 -104 159 0
-103 -104 -159 0
108 109 -160 0
-108 109 160 0
108 -109 160 0
-108 -109 -160 0
110 111 -161 0
-110 111 161 0
110 -111 161 0
-110 -111 -161 0
112 113 -162 0
-112 113 162 0
112 -113 162 0
-112 -113 -162 0
114 115 -163 0
-114 115 163 0
114 -115 163 0
-114 -115 -163 0
116 117 -164 0
-116 117 164 0
116 -117 164 0
-116 -117 -164 0
118 119 -165 0
-118 119 165 0
118 -119 165 0
-118 -119 -165 0
120 121 -166 0
-120 121 166 0
120 -121 166 0
-120 -121 -166 0
122 123 -167 0
-122 123 167 0
122 -123 167 0
-122 -123 -167 0
124 125 -168 0
-124 125 168 0
124 -125 168 0
-124 -125 -168 0
126 127 -169 0
-126 127 169 0
126 -127 169 0
-126 -127 -169 0
128 129 -170 0
-128 129 170 0
128 -129 170 0
-128 -129 -170 0
130 131 -171 0
-130 131 171 0
130 -131 171 0
-130 -131 -171 0
132 133 -172 0
-132 133 172 0
132 -133 172 0
-132 -133 -172 0
134 135 -173 0
-134 135 173 0
134 -135 173 0
-134 -135 -173 0
136 137 -174 0
-136 137 174 0
136 -137 174 0
-136 -137 -174 0
138 139 -175 0
-138 139 175 0
138 -139 175 0
-138 -139 -175 0
140 141 -176 0
-140 141 176 0
140 -141 176 0
-140 -141 -176 0
142 143 -177 0
-142 143 177 0
142 -143 177 0
-142 -143 -177 0
144 145 -178 0
-144 145 178 0
144 -145 178 0
-144 -145 -178 0
146 147 -179 0
-146 147 179 0
146 -147 179 0
-146 -147 -179 0
148 149 -180 0
-148 149 180 0
148 -149 180 0
-148 -149 -180 0
150 151 -181 0
-150 151 181 0
150 -151 181 0
-150 -151 -181 0
152 153 -182 0
-152 153 182 0
152 -153 182 0
-152 -153 -182 0
154 155 -183 0
-154 155 183 0
154 -155 183 0
-154 -155 -183 0
156 157 -184 0
-156 157 184 0
156 -157 184 0
-156 -157 -184 0
158 159 -185 0
-158 159 185 0
158 -159 185 0
-158 -159 -185 0
160 161 -186 0
-160 161 186 0
160 -161 186 0
-160 -161 -186 0
162 163 -187 0
-162 163 187 0
162 -163 187 0
-162 -163 -187 0
164 165 -188 0
-164 165 188 0
164 -165 188 0
-164 -165 -188 0
166 167 -189 0
-166 167 189 0
166 -167 189 0
-166 -167 -189 0
168 169 -190 0
-168 169 190 0
168 -169 190 0
-168 -169 -190 0
170 171 -191 0
-170 171 191 0
170 -171 191 0
-170 -171 -191 0
172 173 -192 0
-172 173 192 0
172 -173 192 0
-172 -173 -192 0
174 175 -193 0
-174 175 193 0
174 -175 193 0
-174 -175 -193 0
176 177 -194 0
-176 177 194 0
176 -177 194 0
-176 -177 -194 0
178 179 -195 0
-178 179 195 0
178 -179 195 0
-178 -179 -195 0
180 181 -196 0
-180 181 196 0
180 -181 196 0
-180 -181 -196 0
182 183 -197 0
-182 183 197 0
182 -183 197 0
-182 -183 -197 0
184 185 -198 0
-184 185 198 0
184 -185 198 0
-184 -185 -198 0
186 187 -199 0
-186 187 199 0
186 -187 199 0
-186 -187 -199 0
188 189 -200 0
-188 189 200 0
188 -189 200 0
-188 -189 -200 0
190 191 -201 0
-190 191 201 0
190 -191 201 0
-190 -191 -201 0
192 193 -202 0
-192 193 202 0
192 -193 202 0
-192 -193 -202 0
194 195 -203 0
-194 195 203 0
194 -195 203 0
-194 -195 -203 0
196 197 -204 0
-196 197 204 0
196 -197 204 0
-196 -197 -204 0
199 200 -205 0
-199 200 205 0
199 -200 205 0
-199 -200 -205 0
201 202 -206 0
-201 202 206 0
201 -202 206 0
-201 -202 -206 0
203 204 -207 0
-203 204 207 0
203 -204 207 0
-203 -204 -207 0
205 206 -208 0
-205 206 208 0
205 -206 208 0
-205 -206 -208 0
207 198 -209 0
-207 198 209 0
207 -198 209 0
-207 -198 -209 0
208 209 -105 0
-208 209 105 0
208 -209 105 0
-208 -209 -105 0
